\ Model Min_sub
\ LP format - for model browsing. Use MPS format to capture full model detail.
Minimize
  C0 + 24 C1 + 9 C2
Subject To
 R0: - C0 + 6 C1 + C2 >= 5
 R1: C0 + 4 C1 + 4 C2 >= 4
Bounds
End
